5 5
7 5 2 15 3 17 4 11 5 14 1 17 3 4 13 5 3 3 10 5 3 17 5 15 1 11 2 15 4 15 4 4 9 1 15 5 2 2 2 5 2 10 3 16 4 8 1 17 5 20 4 2 19 1 6 4 14 5 13 5 3 12 4 10 5 12 1 6 2 16
7 2 3 9 5 2 4 3 16 1 14 5 15 4 15 2 3 20 5 13 2 3 17 4 4 5 4 6 3 17 5 17 1 6 2 12 4 3 19 1 5 4 18 5 9 4 5 4 2 17 3 19 4 19
4 1 2 5 3 5 7 3 17 1 11 5 5 16 4 16 3 19 1 10 2 18 5 4 6 5 20 1 4 3 3 2 5
7 1 1 16 1 4 9 5 4 6 1 11 5 12 2 5 3 18 1 1 13 5 2 2 1 20 3 4 4 5 5 16 1 3 9 2 3 14 2 18
6 4 1 18 4 15 5 16 3 16 5 2 9 5 7 4 10 3 17 1 6 1 4 17 5 2 11 5 11 1 3 3 5 4 10 1 2 3 3 5 6 2 20 3 17